160 300 165 137 192 158 154 102 127 118 156 171 165 111 194 114 165 118 168 101 143 151 145 129 135 194 120 173 138 100 165 105 108 197 142 200 154 196 101 148 181 124 118 111 135 111 192 100 196 160 168 139 110 113 134 112 173 121 151 177 121 183 182 130 179 123 196 199 186 164 146 132 188 165 143 189 142 135 155 104 161 123 109 137 136 109 115 175 130 133 151 152 115 199 148 160 121 143 124 173 106 171 171 160 101 114 149 109 115 103 113 142 126 189 179 128 199 161 169 128 194 119 146 175 184 160 134 172 103 124 144 176 195 115 102 162 196 151 172 177 154 151 185 147 140 163 175 104 123 110 132 116 129 145 157 180 104 191 151 174 115 195 